Academic license - for non-commercial use only
Gurobi Optimizer version 9.0.3 build v9.0.3rc0 (mac64)
Optimize a model with 191914 rows, 180720 columns and 1051770 nonzeros
Model fingerprint: 0xb82317d1
Variable types: 0 continuous, 180720 integer (180720 binary)
Coefficient statistics:
  Matrix range     [1e+00, 1e+00]
  Objective range  [1e+01, 5e+04]
  Bounds range     [1e+00, 1e+00]
  RHS range        [1e+00, 5e+02]
Presolve added 0 rows and 4970 columns
Presolve removed 30 rows and 0 columns
Presolve time: 3.68s
Presolved: 191884 rows, 185690 columns, 766710 nonzeros
Variable types: 0 continuous, 185690 integer (185690 binary)
Found heuristic solution: objective 527125.00000

Concurrent LP optimizer: dual simplex and barrier
Showing barrier log only...

Root barrier log...

Ordering time: 0.05s

Barrier statistics:
 Dense cols : 360
 AA' NZ     : 5.947e+05
 Factor NZ  : 3.756e+06 (roughly 200 MBytes of memory)
 Factor Ops : 1.010e+09 (less than 1 second per iteration)
 Threads    : 3

                  Objective                Residual
Iter       Primal          Dual         Primal    Dual     Compl     Time
   0   1.91933596e+08 -2.88501444e+08  2.87e+02 3.08e+01  1.72e+04     6s
   1   1.06644492e+06 -3.16804658e+08  1.12e+00 6.90e+02  6.22e+02     6s
   2   6.88805940e+05 -1.38907406e+08  3.09e-01 2.92e+02  2.59e+02     7s
   3   6.24497380e+05 -6.42261764e+07  1.67e-01 1.35e+02  1.19e+02     7s
   4   5.59348351e+05 -1.74755280e+07  2.54e-02 3.49e+01  3.26e+01     7s
   5   5.28079539e+05 -1.80981948e+06  4.89e-03 3.17e+01  4.21e+00     7s
   6   4.96506701e+05 -3.45001653e+05  2.98e-03 9.61e+00  1.51e+00     8s
   7   4.77872168e+05  1.31497854e+05  2.20e-03 3.83e+00  6.22e-01     8s
   8   4.63196461e+05  2.62031846e+05  1.75e-03 1.67e+00  3.61e-01     8s
   9   4.50421083e+05  3.05509015e+05  1.41e-03 1.00e+00  2.60e-01     8s
  10   4.36129106e+05  3.41830748e+05  1.07e-03 5.90e-01  1.69e-01     9s
  11   4.26362367e+05  3.60258728e+05  8.65e-04 3.42e-01  1.18e-01     9s
  12   4.21333365e+05  3.66590823e+05  7.65e-04 2.46e-01  9.79e-02     9s
  13   4.16492572e+05  3.71313499e+05  6.63e-04 1.71e-01  8.08e-02    10s
  14   4.09854157e+05  3.75499291e+05  5.27e-04 1.12e-01  6.14e-02    10s
  15   4.07537523e+05  3.77611634e+05  4.78e-04 8.55e-02  5.35e-02    10s
  16   4.02793986e+05  3.78071776e+05  3.86e-04 7.68e-02  4.42e-02    10s
  17   3.99372170e+05  3.79780915e+05  3.21e-04 5.40e-02  3.50e-02    11s
  18   3.95818171e+05  3.80737005e+05  2.53e-04 4.14e-02  2.69e-02    11s
  19   3.92905216e+05  3.81969467e+05  1.93e-04 2.61e-02  1.95e-02    11s
  20   3.89848247e+05  3.82561301e+05  1.25e-04 1.92e-02  1.30e-02    12s
  21   3.88470732e+05  3.83004828e+05  9.59e-05 1.44e-02  9.76e-03    12s
  22   3.87134503e+05  3.83307689e+05  6.80e-05 1.10e-02  6.83e-03    12s
  23   3.86527107e+05  3.83576848e+05  5.38e-05 8.34e-03  5.27e-03    12s
  24   3.85904056e+05  3.83763508e+05  3.98e-05 6.27e-03  3.82e-03    13s
  25   3.85616094e+05  3.83954383e+05  3.30e-05 4.32e-03  2.97e-03    13s
  26   3.85324420e+05  3.84096140e+05  2.56e-05 2.79e-03  2.19e-03    13s
  27   3.85100552e+05  3.84187500e+05  1.97e-05 1.71e-03  1.63e-03    14s
  28   3.84932540e+05  3.84219432e+05  1.55e-05 1.42e-03  1.27e-03    14s
  29   3.84842326e+05  3.84272241e+05  1.30e-05 9.33e-04  1.02e-03    14s
  30   3.84718421e+05  3.84286236e+05  9.86e-06 7.69e-04  7.71e-04    14s
  31   3.84634096e+05  3.84308530e+05  7.56e-06 5.88e-04  5.80e-04    15s
  32   3.84574360e+05  3.84327946e+05  5.78e-06 4.19e-04  4.39e-04    15s
  33   3.84535730e+05  3.84336983e+05  4.66e-06 3.33e-04  3.54e-04    15s
  34   3.84490930e+05  3.84343246e+05  3.38e-06 2.75e-04  2.63e-04    16s
  35   3.84465582e+05  3.84353761e+05  2.68e-06 1.87e-04  1.99e-04    16s
  36   3.84455087e+05  3.84356905e+05  2.38e-06 1.60e-04  1.75e-04    16s
  37   3.84449289e+05  3.84358838e+05  2.20e-06 1.43e-04  1.61e-04    16s
  38   3.84428420e+05  3.84360874e+05  1.61e-06 1.29e-04  1.20e-04    17s
  39   3.84419823e+05  3.84364845e+05  1.36e-06 9.58e-05  9.80e-05    17s
  40   3.84410379e+05  3.84366422e+05  1.09e-06 8.22e-05  7.83e-05    17s
  41   3.84408442e+05  3.84366681e+05  1.03e-06 8.00e-05  7.44e-05    17s
  42   3.84403944e+05  3.84369041e+05  8.98e-07 6.03e-05  6.22e-05    18s
  43   3.84396675e+05  3.84370895e+05  6.61e-07 4.68e-05  4.59e-05    18s
  44   3.84393674e+05  3.84373104e+05  5.62e-07 2.83e-05  3.66e-05    18s
  45   3.84391431e+05  3.84373675e+05  5.01e-07 2.29e-05  3.16e-05    18s
  46   3.84390342e+05  3.84373981e+05  4.66e-07 2.05e-05  2.91e-05    19s
  47   3.84387788e+05  3.84374524e+05  3.79e-07 1.54e-05  2.36e-05    19s
  48   3.84384687e+05  3.84374851e+05  2.87e-07 1.24e-05  1.75e-05    19s
  49   3.84383078e+05  3.84375015e+05  2.33e-07 1.09e-05  1.44e-05    19s
  50   3.84381383e+05  3.84375311e+05  1.74e-07 8.15e-06  1.08e-05    20s
  51   3.84380180e+05  3.84375739e+05  1.35e-07 4.86e-06  7.90e-06    20s
  52   3.84379397e+05  3.84375856e+05  1.08e-07 3.93e-06  6.30e-06    20s
  53   3.84379203e+05  3.84375980e+05  1.01e-07 3.07e-06  5.73e-06    20s
  54   3.84378165e+05  3.84376057e+05  6.31e-08 2.56e-06  3.75e-06    21s
  55   3.84377771e+05  3.84376212e+05  4.93e-08 1.40e-06  2.77e-06    21s
  56   3.84377295e+05  3.84376311e+05  3.12e-08 6.64e-07  1.75e-06    21s
  57   3.84376991e+05  3.84376385e+05  2.01e-08 2.93e-07  1.08e-06    21s
  58   3.84376734e+05  3.84376409e+05  1.08e-08 1.25e-07  5.78e-07    21s
  59   3.84376637e+05  3.84376413e+05  7.30e-09 7.36e-08  3.98e-07    22s
  60   3.84376515e+05  3.84376420e+05  3.03e-09 1.48e-07  1.69e-07    22s
  61   3.84376490e+05  3.84376425e+05  2.16e-09 9.35e-08  1.16e-07    22s
  62   3.84376488e+05  3.84376425e+05  7.13e-09 8.92e-08  1.12e-07    22s
  63   3.84376485e+05  3.84376425e+05  1.68e-08 8.58e-08  1.07e-07    22s
  64   3.84376464e+05  3.84376426e+05  1.38e-08 1.15e-07  6.87e-08    23s
  65   3.84376464e+05  3.84376426e+05  4.05e-08 1.14e-07  6.84e-08    23s
  66   3.84376464e+05  3.84376426e+05  1.25e-07 1.14e-07  6.83e-08    23s
  67   3.84376464e+05  3.84376426e+05  1.25e-07 4.30e-08  6.83e-08    24s

Barrier solved model in 67 iterations and 23.51 seconds
Optimal objective 3.84376464e+05


Root crossover log...

   51029 DPushes remaining with DInf 0.0000000e+00                24s
     261 DPushes remaining with DInf 0.0000000e+00                25s
       0 DPushes remaining with DInf 0.0000000e+00                25s

    1687 PPushes remaining with PInf 2.1866307e-05                25s
       0 PPushes remaining with PInf 2.6915612e-04                26s

  Push phase complete: Pinf 2.6915612e-04, Dinf 1.7292573e-01     26s


Root simplex log...

Iteration    Objective       Primal Inf.    Dual Inf.      Time
    8537    3.8437643e+05   0.000000e+00   1.729257e-01     26s
    8546    3.8437643e+05   0.000000e+00   0.000000e+00     26s

Solved with barrier

Root relaxation: objective 3.843764e+05, 8546 iterations, 20.59 seconds

    Nodes    |    Current Node    |     Objective Bounds      |     Work
 Expl Unexpl |  Obj  Depth IntInf | Incumbent    BestBd   Gap | It/Node Time

     0     0 384376.427    0 19948 527125.000 384376.427  27.1%     -   27s
H    0     0                    430852.00000 384376.427  10.8%     -   38s
     0     0 384381.219    0 19931 430852.000 384381.219  10.8%     -   50s
     0     0 384381.261    0 19930 430852.000 384381.261  10.8%     -   52s
     0     0 384382.521    0 19931 430852.000 384382.521  10.8%     -   63s
     0     0 384383.371    0 19941 430852.000 384383.371  10.8%     -   65s
     0     0 384383.644    0 19945 430852.000 384383.644  10.8%     -   67s
     0     0 384383.671    0 19937 430852.000 384383.671  10.8%     -   68s
     0     0 384383.773    0 19938 430852.000 384383.773  10.8%     -   74s
     0     0 384383.802    0 19939 430852.000 384383.802  10.8%     -   78s
     0     0 384383.810    0 19940 430852.000 384383.810  10.8%     -   86s
     0     0 384383.810    0 19940 430852.000 384383.810  10.8%     -   92s
H    0     2                    427199.00000 384384.078  10.0%     -  136s
     0     2 384384.078    0 19940 427199.000 384384.078  10.0%     -  136s
     1     4 384438.195    1 19925 427199.000 384384.078  10.0% 10101  273s

Cutting planes:
  Gomory: 9

Explored 3 nodes (88334 simplex iterations) in 300.11 seconds
Thread count was 8 (of 8 available processors)

Solution count 3: 427199 430852 527125 

Time limit reached
Best objective 4.271990000000e+05, best bound 3.844383484085e+05, gap 10.0095%

User-callback calls 111078, time in user-callback 0.79 sec
Solution written to /Users/mdeboute/Desktop/Etudes/Master/M2/S9/GOPP/Projet/multi-period-flp/solution/instSingle_I30_J500_T12_0_result.txt
